
Gurobi 9.1.2 (win64) logging started Wed Sep 29 09:43:50 2021

Changed value of parameter LogFile to Gurobi log files/EX_14btdl_e_log
   Prev:   Default: 
Changed value of parameter Threads to 7
   Prev: 0  Min: 0  Max: 1024  Default: 0
Changed value of parameter NodefileStart to 1.0
   Prev: inf  Min: 0.0  Max: inf  Default: inf
Changed value of parameter NodefileDir to C:\Users\dczie\Desktop\shortcourse_test\Strainware-m\Short Courses\Growth Coupling Workflows/Results/Butanediol_Basic/callback_solutions/NodeFiles_EX_14btdl_e_i7_k7_a7
   Prev: .  Default: .
Gurobi Optimizer version 9.1.2 build v9.1.2rc0 (win64)
Thread count: 8 physical cores, 16 logical processors, using up to 7 threads

Warning: excessive time spent in model updates.
Consider calling update less frequently.

Optimize a model with 9039 rows, 9921 columns and 61138 nonzeros
Model fingerprint: 0xd97b5eca
Variable types: 8765 continuous, 1156 integer (1156 binary)
Coefficient statistics:
  Matrix range     [2e-03, 1e+03]
  Objective range  [1e+00, 1e+00]
  Bounds range     [1e-02, 1e+02]
  RHS range        [1e-02, 1e+03]
Presolve removed 5654 rows and 6550 columns
Presolve time: 0.08s
Presolved: 3385 rows, 3371 columns, 18666 nonzeros
Variable types: 2252 continuous, 1119 integer (1119 binary)
Presolve removed 827 rows and 824 columns
Presolved: 2558 rows, 2549 columns, 16787 nonzeros

Extra simplex iterations after uncrush: 2

Root relaxation: objective 1.885137e+01, 3016 iterations, 0.09 seconds

    Nodes    |    Current Node    |     Objective Bounds      |     Work
 Expl Unexpl |  Obj  Depth IntInf | Incumbent    BestBd   Gap | It/Node Time

     0     0   18.85137    0   24          -   18.85137      -     -    0s
H    0     0                      -0.0000000   18.85137      -     -    0s
     0     0   18.85137    0   27   -0.00000   18.85137      -     -    0s
     0     0   18.85137    0   20   -0.00000   18.85137      -     -    0s
     0     0   18.85137    0   22   -0.00000   18.85137      -     -    0s
     0     0   18.85137    0   22   -0.00000   18.85137      -     -    0s
     0     0   18.85137    0   22   -0.00000   18.85137      -     -    0s
     0     0   18.85137    0   19   -0.00000   18.85137      -     -    0s
     0     0   18.85137    0   14   -0.00000   18.85137      -     -    0s
     0     2   18.85137    0   14   -0.00000   18.85137      -     -    0s
  1767   615   18.85137   43    9   -0.00000   18.85137      -  62.4    5s
H 2443   725                       6.0401895   18.85137   212%  60.6    8s
  2931   809   18.85137   33   12    6.04019   18.85137   212%  62.5   10s
  5490  1029   15.93081   15   14    6.04019   18.85137   212%  67.6   15s
H 5742  1159                       6.0401895   18.85137   212%  67.2   18s
  5900  1194   18.85137   59    2    6.04019   18.85137   212%  66.8   20s
  6602  1170   18.85137   34   21    6.04019   18.85137   212%  65.7   25s
H 8035   897                       6.0494580   18.85137   212%  62.0   29s
  8449   839 infeasible   62         6.04946   18.85137   212%  61.0   30s
H 9814   972                       6.0494580   18.85137   212%  59.0   32s
 10831  1076 infeasible   36         6.04946   18.85137   212%  58.0   35s
 12542  1401   18.85137   66   22    6.04946   18.85137   212%  56.8   40s
H12745  1397                       9.3954939   18.85137   101%  56.7   40s
 14924  1721   18.85137   34    2    9.39549   18.85137   101%  56.2   46s
 16943  1658   18.85137   39   25    9.39549   18.85137   101%  56.2   50s
 17702  1636   18.85137   50   16    9.39549   18.85137   101%  56.4   55s
 19069  1654 infeasible   48         9.39549   18.85137   101%  57.1   62s
 20736  1786   18.85137   41   13    9.39549   18.85137   101%  57.5   66s
 22883  1713     cutoff   47         9.39549   18.85137   101%  58.8   71s
 24415  1925   18.85137   44    6    9.39549   18.85137   101%  58.8   77s
 25012  1941   18.85137   44    2    9.39549   18.85137   101%  58.9   80s
 26747  2072   18.85137   41    9    9.39549   18.85137   101%  59.2   85s
 27948  2084   18.85137   43   14    9.39549   18.85137   101%  59.3   92s
 28194  2391   18.85137   28   10    9.39549   18.85137   101%  59.4  104s
 33398  2443   18.85137   39    2    9.39549   18.85137   101%  59.6  108s
 33673  2614 infeasible   40         9.39549   18.85137   101%  59.5  111s
 36159  2854   18.85137   45   26    9.39549   18.85137   101%  59.2  117s
 38385  3078 infeasible   68         9.39549   18.85137   101%  59.2  122s
 38773  3211   18.85137   53   19    9.39549   18.85137   101%  59.3  125s
 39665  3348   18.85137   53    7    9.39549   18.85137   101%  59.8  131s
 42098  3485 infeasible   40         9.39549   18.85137   101%  60.6  137s
 44791  3612   18.85137   51    3    9.39549   18.85137   101%  61.1  142s
 46575  3626 infeasible   48         9.39549   18.85137   101%  61.3  147s
 48813  3689 infeasible   43         9.39549   18.85137   101%  62.1  152s
 50111  3727   18.85137   26    8    9.39549   18.85137   101%  62.4  155s
 50884  3833 infeasible   51         9.39549   18.85137   101%  62.6  160s
 53353  4067 infeasible   41         9.39549   18.85137   101%  62.3  165s
 55696  4182   18.68620   51   17    9.39549   18.85137   101%  62.4  171s
 56023  4428   18.85137   46    9    9.39549   18.85137   101%  62.5  181s
 60843  4457 infeasible   47         9.39549   18.85137   101%  62.6  188s
 61966  4481   18.85137   51    6    9.39549   18.85137   101%  62.9  192s
 63123  4526   18.85137   48   15    9.39549   18.85137   101%  63.1  195s
 65561  4503 infeasible   41         9.39549   18.85137   101%  63.0  201s
 67439  4542 infeasible   36         9.39549   18.85137   101%  63.2  207s
 68701  4598   18.85134   42    4    9.39549   18.85137   101%  63.1  212s
 69534  4667   18.85137   65    3    9.39549   18.85137   101%  63.2  216s
 70372  4816   18.85137   28   17    9.39549   18.85137   101%  63.2  220s
 72979  4782 infeasible   37         9.39549   18.85137   101%  63.2  226s
 75533  4914   13.90087   39    2    9.39549   18.85137   101%  63.1  232s
 76858  4873   18.85137   47    7    9.39549   18.85137   101%  63.4  235s
 78175  4870   18.85137   43   10    9.39549   18.85137   101%  63.7  241s
 80672  4685 infeasible   48         9.39549   18.85137   101%  64.0  247s
 81837  4820   18.85137   38   15    9.39549   18.85137   101%  64.4  250s
 83722  4781   18.85137   35   21    9.39549   18.85137   101%  64.5  256s
 84973  4783     cutoff   56         9.39549   18.85137   101%  64.7  261s
 86314  4713   18.85137   38   19    9.39549   18.85137   101%  64.8  267s
 87330  4771   18.76238   49   23    9.39549   18.85137   101%  64.9  270s
 89520  4860     cutoff   44         9.39549   18.85137   101%  64.8  276s
 91989  4839   18.85137   48    8    9.39549   18.85137   101%  64.7  282s
 93222  5072   18.85137   34   12    9.39549   18.85137   101%  64.7  287s
 94767  5264   18.74866   49    5    9.39549   18.85137   101%  64.6  291s
 96810  5642   18.85137   42    2    9.39549   18.85137   101%  64.4  297s
 98197  5812   17.45480   44   23    9.39549   18.85137   101%  64.3  300s

Cutting planes:
  Gomory: 2
  MIR: 2
  Flow cover: 24
  Inf proof: 30
  RLT: 1
  Relax-and-lift: 2

Explored 98932 nodes (6349778 simplex iterations) in 300.05 seconds
Thread count was 7 (of 16 available processors)

Solution count 5: 9.39549 6.04946 6.04019 ... -0

Time limit reached
Best objective 9.395493896667e+00, best bound 1.885136893633e+01, gap 100.6427%

User-callback calls 273132, time in user-callback 1.21 sec

Gurobi 9.1.2 (win64) logging started Sun Oct 31 21:10:58 2021

Changed value of parameter LogFile to Gurobi log files/EX_14btdl_e_log
   Prev:   Default: 
Changed value of parameter Threads to 7
   Prev: 0  Min: 0  Max: 1024  Default: 0
Changed value of parameter NodefileStart to 1.0
   Prev: inf  Min: 0.0  Max: inf  Default: inf
Changed value of parameter NodefileDir to C:\Users\dczie\Desktop\shortcourse_test\GDGA_Shortcourse\Module1_FBA\Part2_Exercise\Growth Coupling Workflows/Results/Butanediol_Basic/callback_solutions/NodeFiles_EX_14btdl_e_i7_k7_a7
   Prev: .  Default: .
Gurobi Optimizer version 9.1.2 build v9.1.2rc0 (win64)
Thread count: 8 physical cores, 16 logical processors, using up to 7 threads

Warning: excessive time spent in model updates.
Consider calling update less frequently.

Optimize a model with 9039 rows, 9921 columns and 61138 nonzeros
Model fingerprint: 0x02dd5a7a
Variable types: 8765 continuous, 1156 integer (1156 binary)
Coefficient statistics:
  Matrix range     [2e-03, 1e+03]
  Objective range  [1e+00, 1e+00]
  Bounds range     [1e-02, 1e+02]
  RHS range        [1e-02, 1e+03]
Presolve removed 5654 rows and 6551 columns
Presolve time: 0.08s
Presolved: 3385 rows, 3370 columns, 18672 nonzeros
Variable types: 2251 continuous, 1119 integer (1119 binary)
Presolve removed 827 rows and 824 columns
Presolved: 2558 rows, 2548 columns, 16793 nonzeros

Extra simplex iterations after uncrush: 1

Root relaxation: objective 1.885137e+01, 2883 iterations, 0.08 seconds

    Nodes    |    Current Node    |     Objective Bounds      |     Work
 Expl Unexpl |  Obj  Depth IntInf | Incumbent    BestBd   Gap | It/Node Time

     0     0   18.85137    0   29          -   18.85137      -     -    0s
H    0     0                      -0.0000000   18.85137      -     -    0s
     0     0   18.85137    0   28   -0.00000   18.85137      -     -    0s
     0     0   18.85137    0   24   -0.00000   18.85137      -     -    0s
     0     0   18.85137    0   19   -0.00000   18.85137      -     -    0s
     0     0   18.85137    0   17   -0.00000   18.85137      -     -    0s
     0     0   18.85137    0   17   -0.00000   18.85137      -     -    0s
     0     2   18.85137    0   17   -0.00000   18.85137      -     -    0s
H  785   312                       0.0000000   18.85137      -  62.9    2s
  1127   353     cutoff   36         0.00000   18.85137      -  70.4    5s
  3795   658   18.85137   19   44    0.00000   18.85137      -  72.9   11s
  5172   899   18.81861   18   17    0.00000   18.85137      -  72.4   15s
  5590  1161   15.91404   51   26    0.00000   18.85137      -  73.2   20s
H 6065  1040                       0.0000000   18.85137      -  74.0   24s
  6067  1199     cutoff   40         0.00000   18.85137      -  74.0   26s
H 7693  1458                       0.0000001   18.85137      -  72.3   30s
  8976  1991   18.85137   36   31    0.00000   18.85137      -  71.2   35s
 10942  2597   18.85137   34   32    0.00000   18.85137      -  72.9   40s
 12975  3221     cutoff   45         0.00000   18.85137      -  71.4   46s
 14894  3580   18.85137   40   11    0.00000   18.85137      -  71.1   51s
 16016  4120    2.69253   57    7    0.00000   18.85137      -  69.9   55s
 18594  5128   18.85137   40    5    0.00000   18.85137      -  67.8   60s
 21787  5536     cutoff   56         0.00000   18.85137      -  65.2   66s
 22716  6052   18.85137   33    4    0.00000   18.85137      -  64.7   71s
 24224  6852   18.85137   42    4    0.00000   18.85137      -  64.4   75s
 26114  7340     cutoff   41         0.00000   18.85137      -  64.1   81s
 27738  8051     cutoff   44         0.00000   18.85137      -  64.1   88s
 29098  8334   18.85137   45   17    0.00000   18.85137      -  63.9   90s
 30499  8801     cutoff   52         0.00000   18.85137      -  64.0   95s
 32855  9259   18.85137   51   22    0.00000   18.85137      -  64.3  100s
 34401  9495   18.85137   53    5    0.00000   18.85137      -  64.4  105s
 36248  9736   18.85137   47   35    0.00000   18.85137      -  64.9  110s
 38165 10236     cutoff   51         0.00000   18.85137      -  65.4  116s
 39742 10690   18.85137   50    4    0.00000   18.85137      -  65.4  120s
 42344 10941     cutoff   60         0.00000   18.85137      -  65.3  127s
 44537 11201 infeasible   36         0.00000   18.85137      -  65.6  131s
 46051 11458 infeasible   57         0.00000   18.85137      -  66.0  135s
 48067 11650     cutoff   51         0.00000   18.85137      -  66.4  143s
 48966 11804     cutoff   45         0.00000   18.85137      -  66.7  145s
 50677 12323     cutoff   37         0.00000   18.85137      -  67.1  152s
 52151 12459   18.85137   34   46    0.00000   18.85137      -  67.0  156s
 54194 13013    1.80250   57    6    0.00000   18.85137      -  67.1  162s
 55243 13376   18.85137   49   22    0.00000   18.85137      -  67.2  165s
 59093 14265   18.85137   30    2    0.00000   18.85137      -  67.2  171s
 60532 14772   18.85137   52    3    0.00000   18.85137      -  67.3  176s
 62936 15369   18.85137   55   33    0.00000   18.85137      -  67.4  181s
 64990 16067     cutoff   48         0.00000   18.85137      -  67.2  187s
 66694 17347    1.30830   56    2    0.00000   18.85137      -  67.1  192s
 68537 18019   18.85137   49    6    0.00000   18.85137      -  66.9  197s
 69616 18237   18.85137   31    7    0.00000   18.85137      -  67.1  200s
 71274 18907     cutoff   24         0.00000   18.85137      -  67.2  207s
 72839 19257   18.85137   39   37    0.00000   18.85137      -  67.3  210s
 74734 19718   18.85137   44   32    0.00000   18.85137      -  67.4  216s
 75599 20035   18.85137   40   27    0.00000   18.85137      -  67.4  221s
 77726 20326     cutoff   50         0.00000   18.85137      -  67.5  228s
 79228 20637   18.85137   44   38    0.00000   18.85137      -  67.6  231s
 81395 21103   18.85137   54   35    0.00000   18.85137      -  67.5  237s
 82771 21273     cutoff   40         0.00000   18.85137      -  67.6  240s
 84694 21585    6.95140   50    2    0.00000   18.85137      -  67.8  246s
 86406 21737     cutoff   25         0.00000   18.85137      -  67.9  254s
 87296 21845   18.85137   53    2    0.00000   18.85137      -  68.0  258s
 88623 21886   18.85137   47   35    0.00000   18.85137      -  68.1  261s
 89479 21937     cutoff   36         0.00000   18.85137      -  68.2  265s
 91984 22896    2.16300   57    5    0.00000   18.85137      -  68.2  272s
 93858 23178 infeasible   58         0.00000   18.85137      -  68.0  275s
 96044 23474   18.85137   51    4    0.00000   18.85137      -  67.9  280s
 97965 23883     cutoff   39         0.00000   18.85137      -  68.0  286s
 99330 24087     cutoff   49         0.00000   18.85137      -  68.0  290s
 101942 24518   18.85137   49   31    0.00000   18.85137      -  68.1  296s
 103893 24539     cutoff   38         0.00000   18.85137      -  68.3  300s

Cutting planes:
  Gomory: 1
  Implied bound: 1
  MIR: 7
  Flow cover: 27
  Inf proof: 1
  Relax-and-lift: 3

Explored 104166 nodes (7126957 simplex iterations) in 300.03 seconds
Thread count was 7 (of 16 available processors)

Solution count 4: 1.12641e-07 3.94341e-10 2.3563e-10 -0 

Time limit reached
Best objective 1.126414740096e-07, best bound 1.885136893636e+01, gap -

User-callback calls 276702, time in user-callback 0.67 sec
